\ Model Bin
\ LP format - for model browsing. Use MPS format to capture full model detail.
Maximize
  min
Subject To
 R0: 23 open[0,0] <= 100
 R1: 23 open[0,1] <= 150
 R2: 23 open[0,2] <= 150
 R3: 23 open[0,3] <= 100
 R4: 39 open[1,0] <= 100
 R5: 39 open[1,1] <= 150
 R6: 39 open[1,2] <= 150
 R7: 39 open[1,3] <= 100
 R8: 20 open[2,0] <= 100
 R9: 20 open[2,1] <= 150
 R10: 20 open[2,2] <= 150
 R11: 20 open[2,3] <= 100
 R12: 14 open[3,0] <= 100
 R13: 14 open[3,1] <= 150
 R14: 14 open[3,2] <= 150
 R15: 14 open[3,3] <= 100
 R16: 43 open[4,0] <= 100
 R17: 43 open[4,1] <= 150
 R18: 43 open[4,2] <= 150
 R19: 43 open[4,3] <= 100
 R20: 13 open[5,0] <= 100
 R21: 13 open[5,1] <= 150
 R22: 13 open[5,2] <= 150
 R23: 13 open[5,3] <= 100
 R24: 42 open[6,0] <= 100
 R25: 42 open[6,1] <= 150
 R26: 42 open[6,2] <= 150
 R27: 42 open[6,3] <= 100
 R28: 57 open[7,0] <= 100
 R29: 57 open[7,1] <= 150
 R30: 57 open[7,2] <= 150
 R31: 57 open[7,3] <= 100
 R32: 20 open[8,0] <= 100
 R33: 20 open[8,1] <= 150
 R34: 20 open[8,2] <= 150
 R35: 20 open[8,3] <= 100
 R36: 51 open[9,0] <= 100
 R37: 51 open[9,1] <= 150
 R38: 51 open[9,2] <= 150
 R39: 51 open[9,3] <= 100
 R40: 3.5 open[0,0] + 3.5 open[1,0] + 2.5 open[2,0] + 2.5 open[3,0]
   + 3.5 open[4,0] + 1.5 open[5,0] + 2.5 open[6,0] + 2.5 open[7,0]
   + 1.5 open[8,0] + 1.5 open[9,0] <= 245
 R41: 3.5 open[0,1] + 3.5 open[1,1] + 2.5 open[2,1] + 2.5 open[3,1]
   + 3.5 open[4,1] + 1.5 open[5,1] + 2.5 open[6,1] + 2.5 open[7,1]
   + 1.5 open[8,1] + 1.5 open[9,1] <= 245
 R42: 3.5 open[0,2] + 3.5 open[1,2] + 2.5 open[2,2] + 2.5 open[3,2]
   + 3.5 open[4,2] + 1.5 open[5,2] + 2.5 open[6,2] + 2.5 open[7,2]
   + 1.5 open[8,2] + 1.5 open[9,2] <= 245
 R43: 3.5 open[0,3] + 3.5 open[1,3] + 2.5 open[2,3] + 2.5 open[3,3]
   + 3.5 open[4,3] + 1.5 open[5,3] + 2.5 open[6,3] + 2.5 open[7,3]
   + 1.5 open[8,3] + 1.5 open[9,3] <= 245
 R44: 0.02875 open[0,0] + 0.04875 open[1,0] + 0.0166666666666667 open[2,0]
   + 0.0116666666666667 open[3,0] + 0.05375 open[4,0]
   + 0.00541666666666667 open[5,0] + 0.035 open[6,0] + 0.0475 open[7,0]
   + 0.00833333333333333 open[8,0] + 0.02125 open[9,0] - min >= 0
 R45: 0.0191666666666667 open[0,1] + 0.0325 open[1,1]
   + 0.0111111111111111 open[2,1] + 0.00777777777777778 open[3,1]
   + 0.0358333333333333 open[4,1] + 0.00361111111111111 open[5,1]
   + 0.0233333333333333 open[6,1] + 0.0316666666666667 open[7,1]
   + 0.00555555555555556 open[8,1] + 0.0141666666666667 open[9,1] - min
   >= 0
 R46: 0.0191666666666667 open[0,2] + 0.0325 open[1,2]
   + 0.0111111111111111 open[2,2] + 0.00777777777777778 open[3,2]
   + 0.0358333333333333 open[4,2] + 0.00361111111111111 open[5,2]
   + 0.0233333333333333 open[6,2] + 0.0316666666666667 open[7,2]
   + 0.00555555555555556 open[8,2] + 0.0141666666666667 open[9,2] - min
   >= 0
 R47: 0.02875 open[0,3] + 0.04875 open[1,3] + 0.0166666666666667 open[2,3]
   + 0.0116666666666667 open[3,3] + 0.05375 open[4,3]
   + 0.00541666666666667 open[5,3] + 0.035 open[6,3] + 0.0475 open[7,3]
   + 0.00833333333333333 open[8,3] + 0.02125 open[9,3] - min >= 0
 R48: open[0,0] + open[0,1] + open[0,2] + open[0,3] = 1
 R49: open[1,0] + open[1,1] + open[1,2] + open[1,3] = 1
 R50: open[2,0] + open[2,1] + open[2,2] + open[2,3] = 1
 R51: open[3,0] + open[3,1] + open[3,2] + open[3,3] = 1
 R52: open[4,0] + open[4,1] + open[4,2] + open[4,3] = 1
 R53: open[5,0] + open[5,1] + open[5,2] + open[5,3] = 1
 R54: open[6,0] + open[6,1] + open[6,2] + open[6,3] = 1
 R55: open[7,0] + open[7,1] + open[7,2] + open[7,3] = 1
 R56: open[8,0] + open[8,1] + open[8,2] + open[8,3] = 1
 R57: open[9,0] + open[9,1] + open[9,2] + open[9,3] = 1
Bounds
Binaries
 open[0,0] open[0,1] open[0,2] open[0,3] open[1,0] open[1,1] open[1,2]
 open[1,3] open[2,0] open[2,1] open[2,2] open[2,3] open[3,0] open[3,1]
 open[3,2] open[3,3] open[4,0] open[4,1] open[4,2] open[4,3] open[5,0]
 open[5,1] open[5,2] open[5,3] open[6,0] open[6,1] open[6,2] open[6,3]
 open[7,0] open[7,1] open[7,2] open[7,3] open[8,0] open[8,1] open[8,2]
 open[8,3] open[9,0] open[9,1] open[9,2] open[9,3]
End
